#DFT
XC.functional GGA
XC.authors  PBE
SCFMustConverge T

#MD
SolutionMethod      evolve
MD.TypeOfRun        verlet
MD.FinalTimeStep    500
TD.FinalTimeStep    500
MD.LengthTimeStep     0.00 fs
TD.LengthTimeStep   0.01 fs
MD.InitialTemperature  300 k


TD.DeltaElectricField T
%block ExternalElectricField
0.01 0.0 0.0 Ry/Bohr/e
%endblock ExternalElectricField


%block kgrid_Monkhorst_Pack
1 0 0 0.0
0 1 0 0.0
0 0 1 0.0
%endblock kgrid_Monkhorst_Pack

AtomicCoordinatesFormat  Fractional
LatticeConstant  1.0  Ang

NumberOfAtoms    3
NumberOfSpecies  2

%block LatticeVectors
       10.0        0.0000000000         0.0000000000
       0.0         10.0                 0.0000000000
       0.00        0.00                 10.0
%endblock LatticeVectors

%block ChemicalSpeciesLabel
   1    1    H
   2    8    O
%endblock ChemicalSpeciesLabel

%block AtomicCoordinatesAndAtomicSpecies
    0.44820475    0.41355314    0.41547532   1       1  H
    0.57091037    0.41168595    0.50808773   1       2  H
    0.47461484    0.41168595    0.50808773   2       3  O
%endblock AtomicCoordinatesAndAtomicSpecies


